Minimize
 obj: 0 X_0_1
Subject To
 out_0:
  + 1 X_0_1 + 1 X_0_2 + 1 X_0_3 + 1 X_0_4 + 1 X_0_5 + 1 X_0_6 + 1 X_0_7 + 1 X_0_8
  + 1 X_0_9 + 1 X_0_10 + 1 X_0_11 + 1 X_0_12 + 1 X_0_13 + 1 X_0_14
  = 1
 in_0:
  + 1 X_1_0 + 1 X_2_0 + 1 X_3_0 + 1 X_4_0 + 1 X_5_0 + 1 X_6_0 + 1 X_7_0 + 1 X_8_0
  + 1 X_9_0 + 1 X_10_0 + 1 X_11_0 + 1 X_12_0 + 1 X_13_0 + 1 X_14_0
  = 1
 out_1:
  + 1 X_1_0 + 1 X_1_2 + 1 X_1_3 + 1 X_1_4 + 1 X_1_5 + 1 X_1_6 + 1 X_1_7 + 1 X_1_8
  + 1 X_1_9 + 1 X_1_10 + 1 X_1_11 + 1 X_1_12 + 1 X_1_13 + 1 X_1_14
  = 1
 in_1:
  + 1 X_0_1 + 1 X_2_1 + 1 X_3_1 + 1 X_4_1 + 1 X_5_1 + 1 X_6_1 + 1 X_7_1 + 1 X_8_1
  + 1 X_9_1 + 1 X_10_1 + 1 X_11_1 + 1 X_12_1 + 1 X_13_1 + 1 X_14_1
  = 1
 out_2:
  + 1 X_2_0 + 1 X_2_1 + 1 X_2_3 + 1 X_2_4 + 1 X_2_5 + 1 X_2_6 + 1 X_2_7 + 1 X_2_8
  + 1 X_2_9 + 1 X_2_10 + 1 X_2_11 + 1 X_2_12 + 1 X_2_13 + 1 X_2_14
  = 1
 in_2:
  + 1 X_0_2 + 1 X_1_2 + 1 X_3_2 + 1 X_4_2 + 1 X_5_2 + 1 X_6_2 + 1 X_7_2 + 1 X_8_2
  + 1 X_9_2 + 1 X_10_2 + 1 X_11_2 + 1 X_12_2 + 1 X_13_2 + 1 X_14_2
  = 1
 out_3:
  + 1 X_3_0 + 1 X_3_1 + 1 X_3_2 + 1 X_3_4 + 1 X_3_5 + 1 X_3_6 + 1 X_3_7 + 1 X_3_8
  + 1 X_3_9 + 1 X_3_10 + 1 X_3_11 + 1 X_3_12 + 1 X_3_13 + 1 X_3_14
  = 1
 in_3:
  + 1 X_0_3 + 1 X_1_3 + 1 X_2_3 + 1 X_4_3 + 1 X_5_3 + 1 X_6_3 + 1 X_7_3 + 1 X_8_3
  + 1 X_9_3 + 1 X_10_3 + 1 X_11_3 + 1 X_12_3 + 1 X_13_3 + 1 X_14_3
  = 1
 out_4:
  + 1 X_4_0 + 1 X_4_1 + 1 X_4_2 + 1 X_4_3 + 1 X_4_5 + 1 X_4_6 + 1 X_4_7 + 1 X_4_8
  + 1 X_4_9 + 1 X_4_10 + 1 X_4_11 + 1 X_4_12 + 1 X_4_13 + 1 X_4_14
  = 1
 in_4:
  + 1 X_0_4 + 1 X_1_4 + 1 X_2_4 + 1 X_3_4 + 1 X_5_4 + 1 X_6_4 + 1 X_7_4 + 1 X_8_4
  + 1 X_9_4 + 1 X_10_4 + 1 X_11_4 + 1 X_12_4 + 1 X_13_4 + 1 X_14_4
  = 1
 out_5:
  + 1 X_5_0 + 1 X_5_1 + 1 X_5_2 + 1 X_5_3 + 1 X_5_4 + 1 X_5_6 + 1 X_5_7 + 1 X_5_8
  + 1 X_5_9 + 1 X_5_10 + 1 X_5_11 + 1 X_5_12 + 1 X_5_13 + 1 X_5_14
  = 1
 in_5:
  + 1 X_0_5 + 1 X_1_5 + 1 X_2_5 + 1 X_3_5 + 1 X_4_5 + 1 X_6_5 + 1 X_7_5 + 1 X_8_5
  + 1 X_9_5 + 1 X_10_5 + 1 X_11_5 + 1 X_12_5 + 1 X_13_5 + 1 X_14_5
  = 1
 out_6:
  + 1 X_6_0 + 1 X_6_1 + 1 X_6_2 + 1 X_6_3 + 1 X_6_4 + 1 X_6_5 + 1 X_6_7 + 1 X_6_8
  + 1 X_6_9 + 1 X_6_10 + 1 X_6_11 + 1 X_6_12 + 1 X_6_13 + 1 X_6_14
  = 1
 in_6:
  + 1 X_0_6 + 1 X_1_6 + 1 X_2_6 + 1 X_3_6 + 1 X_4_6 + 1 X_5_6 + 1 X_7_6 + 1 X_8_6
  + 1 X_9_6 + 1 X_10_6 + 1 X_11_6 + 1 X_12_6 + 1 X_13_6 + 1 X_14_6
  = 1
 out_7:
  + 1 X_7_0 + 1 X_7_1 + 1 X_7_2 + 1 X_7_3 + 1 X_7_4 + 1 X_7_5 + 1 X_7_6 + 1 X_7_8
  + 1 X_7_9 + 1 X_7_10 + 1 X_7_11 + 1 X_7_12 + 1 X_7_13 + 1 X_7_14
  = 1
 in_7:
  + 1 X_0_7 + 1 X_1_7 + 1 X_2_7 + 1 X_3_7 + 1 X_4_7 + 1 X_5_7 + 1 X_6_7 + 1 X_8_7
  + 1 X_9_7 + 1 X_10_7 + 1 X_11_7 + 1 X_12_7 + 1 X_13_7 + 1 X_14_7
  = 1
 out_8:
  + 1 X_8_0 + 1 X_8_1 + 1 X_8_2 + 1 X_8_3 + 1 X_8_4 + 1 X_8_5 + 1 X_8_6 + 1 X_8_7
  + 1 X_8_9 + 1 X_8_10 + 1 X_8_11 + 1 X_8_12 + 1 X_8_13 + 1 X_8_14
  = 1
 in_8:
  + 1 X_0_8 + 1 X_1_8 + 1 X_2_8 + 1 X_3_8 + 1 X_4_8 + 1 X_5_8 + 1 X_6_8 + 1 X_7_8
  + 1 X_9_8 + 1 X_10_8 + 1 X_11_8 + 1 X_12_8 + 1 X_13_8 + 1 X_14_8
  = 1
 out_9:
  + 1 X_9_0 + 1 X_9_1 + 1 X_9_2 + 1 X_9_3 + 1 X_9_4 + 1 X_9_5 + 1 X_9_6 + 1 X_9_7
  + 1 X_9_8 + 1 X_9_10 + 1 X_9_11 + 1 X_9_12 + 1 X_9_13 + 1 X_9_14
  = 1
 in_9:
  + 1 X_0_9 + 1 X_1_9 + 1 X_2_9 + 1 X_3_9 + 1 X_4_9 + 1 X_5_9 + 1 X_6_9 + 1 X_7_9
  + 1 X_8_9 + 1 X_10_9 + 1 X_11_9 + 1 X_12_9 + 1 X_13_9 + 1 X_14_9
  = 1
 out_10:
  + 1 X_10_0 + 1 X_10_1 + 1 X_10_2 + 1 X_10_3 + 1 X_10_4 + 1 X_10_5 + 1 X_10_6 + 1 X_10_7
  + 1 X_10_8 + 1 X_10_9 + 1 X_10_11 + 1 X_10_12 + 1 X_10_13 + 1 X_10_14
  = 1
 in_10:
  + 1 X_0_10 + 1 X_1_10 + 1 X_2_10 + 1 X_3_10 + 1 X_4_10 + 1 X_5_10 + 1 X_6_10 + 1 X_7_10
  + 1 X_8_10 + 1 X_9_10 + 1 X_11_10 + 1 X_12_10 + 1 X_13_10 + 1 X_14_10
  = 1
 out_11:
  + 1 X_11_0 + 1 X_11_1 + 1 X_11_2 + 1 X_11_3 + 1 X_11_4 + 1 X_11_5 + 1 X_11_6 + 1 X_11_7
  + 1 X_11_8 + 1 X_11_9 + 1 X_11_10 + 1 X_11_12 + 1 X_11_13 + 1 X_11_14
  = 1
 in_11:
  + 1 X_0_11 + 1 X_1_11 + 1 X_2_11 + 1 X_3_11 + 1 X_4_11 + 1 X_5_11 + 1 X_6_11 + 1 X_7_11
  + 1 X_8_11 + 1 X_9_11 + 1 X_10_11 + 1 X_12_11 + 1 X_13_11 + 1 X_14_11
  = 1
 out_12:
  + 1 X_12_0 + 1 X_12_1 + 1 X_12_2 + 1 X_12_3 + 1 X_12_4 + 1 X_12_5 + 1 X_12_6 + 1 X_12_7
  + 1 X_12_8 + 1 X_12_9 + 1 X_12_10 + 1 X_12_11 + 1 X_12_13 + 1 X_12_14
  = 1
 in_12:
  + 1 X_0_12 + 1 X_1_12 + 1 X_2_12 + 1 X_3_12 + 1 X_4_12 + 1 X_5_12 + 1 X_6_12 + 1 X_7_12
  + 1 X_8_12 + 1 X_9_12 + 1 X_10_12 + 1 X_11_12 + 1 X_13_12 + 1 X_14_12
  = 1
 out_13:
  + 1 X_13_0 + 1 X_13_1 + 1 X_13_2 + 1 X_13_3 + 1 X_13_4 + 1 X_13_5 + 1 X_13_6 + 1 X_13_7
  + 1 X_13_8 + 1 X_13_9 + 1 X_13_10 + 1 X_13_11 + 1 X_13_12 + 1 X_13_14
  = 1
 in_13:
  + 1 X_0_13 + 1 X_1_13 + 1 X_2_13 + 1 X_3_13 + 1 X_4_13 + 1 X_5_13 + 1 X_6_13 + 1 X_7_13
  + 1 X_8_13 + 1 X_9_13 + 1 X_10_13 + 1 X_11_13 + 1 X_12_13 + 1 X_14_13
  = 1
 out_14:
  + 1 X_14_0 + 1 X_14_1 + 1 X_14_2 + 1 X_14_3 + 1 X_14_4 + 1 X_14_5 + 1 X_14_6 + 1 X_14_7
  + 1 X_14_8 + 1 X_14_9 + 1 X_14_10 + 1 X_14_11 + 1 X_14_12 + 1 X_14_13
  = 1
 in_14:
  + 1 X_0_14 + 1 X_1_14 + 1 X_2_14 + 1 X_3_14 + 1 X_4_14 + 1 X_5_14 + 1 X_6_14 + 1 X_7_14
  + 1 X_8_14 + 1 X_9_14 + 1 X_10_14 + 1 X_11_14 + 1 X_12_14 + 1 X_13_14
  = 1
 mtz_1_2:
  + 1 U1 - 1 U2 + 14 X_1_2
  <= 13
 mtz_1_3:
  + 1 U1 - 1 U3 + 14 X_1_3
  <= 13
 mtz_1_4:
  + 1 U1 - 1 U4 + 14 X_1_4
  <= 13
 mtz_1_5:
  + 1 U1 - 1 U5 + 14 X_1_5
  <= 13
 mtz_1_6:
  + 1 U1 - 1 U6 + 14 X_1_6
  <= 13
 mtz_1_7:
  + 1 U1 - 1 U7 + 14 X_1_7
  <= 13
 mtz_1_8:
  + 1 U1 - 1 U8 + 14 X_1_8
  <= 13
 mtz_1_9:
  + 1 U1 - 1 U9 + 14 X_1_9
  <= 13
 mtz_1_10:
  + 1 U1 - 1 U10 + 14 X_1_10
  <= 13
 mtz_1_11:
  + 1 U1 - 1 U11 + 14 X_1_11
  <= 13
 mtz_1_12:
  + 1 U1 - 1 U12 + 14 X_1_12
  <= 13
 mtz_1_13:
  + 1 U1 - 1 U13 + 14 X_1_13
  <= 13
 mtz_1_14:
  + 1 U1 - 1 U14 + 14 X_1_14
  <= 13
 mtz_2_1:
  + 1 U2 - 1 U1 + 14 X_2_1
  <= 13
 mtz_2_3:
  + 1 U2 - 1 U3 + 14 X_2_3
  <= 13
 mtz_2_4:
  + 1 U2 - 1 U4 + 14 X_2_4
  <= 13
 mtz_2_5:
  + 1 U2 - 1 U5 + 14 X_2_5
  <= 13
 mtz_2_6:
  + 1 U2 - 1 U6 + 14 X_2_6
  <= 13
 mtz_2_7:
  + 1 U2 - 1 U7 + 14 X_2_7
  <= 13
 mtz_2_8:
  + 1 U2 - 1 U8 + 14 X_2_8
  <= 13
 mtz_2_9:
  + 1 U2 - 1 U9 + 14 X_2_9
  <= 13
 mtz_2_10:
  + 1 U2 - 1 U10 + 14 X_2_10
  <= 13
 mtz_2_11:
  + 1 U2 - 1 U11 + 14 X_2_11
  <= 13
 mtz_2_12:
  + 1 U2 - 1 U12 + 14 X_2_12
  <= 13
 mtz_2_13:
  + 1 U2 - 1 U13 + 14 X_2_13
  <= 13
 mtz_2_14:
  + 1 U2 - 1 U14 + 14 X_2_14
  <= 13
 mtz_3_1:
  + 1 U3 - 1 U1 + 14 X_3_1
  <= 13
 mtz_3_2:
  + 1 U3 - 1 U2 + 14 X_3_2
  <= 13
 mtz_3_4:
  + 1 U3 - 1 U4 + 14 X_3_4
  <= 13
 mtz_3_5:
  + 1 U3 - 1 U5 + 14 X_3_5
  <= 13
 mtz_3_6:
  + 1 U3 - 1 U6 + 14 X_3_6
  <= 13
 mtz_3_7:
  + 1 U3 - 1 U7 + 14 X_3_7
  <= 13
 mtz_3_8:
  + 1 U3 - 1 U8 + 14 X_3_8
  <= 13
 mtz_3_9:
  + 1 U3 - 1 U9 + 14 X_3_9
  <= 13
 mtz_3_10:
  + 1 U3 - 1 U10 + 14 X_3_10
  <= 13
 mtz_3_11:
  + 1 U3 - 1 U11 + 14 X_3_11
  <= 13
 mtz_3_12:
  + 1 U3 - 1 U12 + 14 X_3_12
  <= 13
 mtz_3_13:
  + 1 U3 - 1 U13 + 14 X_3_13
  <= 13
 mtz_3_14:
  + 1 U3 - 1 U14 + 14 X_3_14
  <= 13
 mtz_4_1:
  + 1 U4 - 1 U1 + 14 X_4_1
  <= 13
 mtz_4_2:
  + 1 U4 - 1 U2 + 14 X_4_2
  <= 13
 mtz_4_3:
  + 1 U4 - 1 U3 + 14 X_4_3
  <= 13
 mtz_4_5:
  + 1 U4 - 1 U5 + 14 X_4_5
  <= 13
 mtz_4_6:
  + 1 U4 - 1 U6 + 14 X_4_6
  <= 13
 mtz_4_7:
  + 1 U4 - 1 U7 + 14 X_4_7
  <= 13
 mtz_4_8:
  + 1 U4 - 1 U8 + 14 X_4_8
  <= 13
 mtz_4_9:
  + 1 U4 - 1 U9 + 14 X_4_9
  <= 13
 mtz_4_10:
  + 1 U4 - 1 U10 + 14 X_4_10
  <= 13
 mtz_4_11:
  + 1 U4 - 1 U11 + 14 X_4_11
  <= 13
 mtz_4_12:
  + 1 U4 - 1 U12 + 14 X_4_12
  <= 13
 mtz_4_13:
  + 1 U4 - 1 U13 + 14 X_4_13
  <= 13
 mtz_4_14:
  + 1 U4 - 1 U14 + 14 X_4_14
  <= 13
 mtz_5_1:
  + 1 U5 - 1 U1 + 14 X_5_1
  <= 13
 mtz_5_2:
  + 1 U5 - 1 U2 + 14 X_5_2
  <= 13
 mtz_5_3:
  + 1 U5 - 1 U3 + 14 X_5_3
  <= 13
 mtz_5_4:
  + 1 U5 - 1 U4 + 14 X_5_4
  <= 13
 mtz_5_6:
  + 1 U5 - 1 U6 + 14 X_5_6
  <= 13
 mtz_5_7:
  + 1 U5 - 1 U7 + 14 X_5_7
  <= 13
 mtz_5_8:
  + 1 U5 - 1 U8 + 14 X_5_8
  <= 13
 mtz_5_9:
  + 1 U5 - 1 U9 + 14 X_5_9
  <= 13
 mtz_5_10:
  + 1 U5 - 1 U10 + 14 X_5_10
  <= 13
 mtz_5_11:
  + 1 U5 - 1 U11 + 14 X_5_11
  <= 13
 mtz_5_12:
  + 1 U5 - 1 U12 + 14 X_5_12
  <= 13
 mtz_5_13:
  + 1 U5 - 1 U13 + 14 X_5_13
  <= 13
 mtz_5_14:
  + 1 U5 - 1 U14 + 14 X_5_14
  <= 13
 mtz_6_1:
  + 1 U6 - 1 U1 + 14 X_6_1
  <= 13
 mtz_6_2:
  + 1 U6 - 1 U2 + 14 X_6_2
  <= 13
 mtz_6_3:
  + 1 U6 - 1 U3 + 14 X_6_3
  <= 13
 mtz_6_4:
  + 1 U6 - 1 U4 + 14 X_6_4
  <= 13
 mtz_6_5:
  + 1 U6 - 1 U5 + 14 X_6_5
  <= 13
 mtz_6_7:
  + 1 U6 - 1 U7 + 14 X_6_7
  <= 13
 mtz_6_8:
  + 1 U6 - 1 U8 + 14 X_6_8
  <= 13
 mtz_6_9:
  + 1 U6 - 1 U9 + 14 X_6_9
  <= 13
 mtz_6_10:
  + 1 U6 - 1 U10 + 14 X_6_10
  <= 13
 mtz_6_11:
  + 1 U6 - 1 U11 + 14 X_6_11
  <= 13
 mtz_6_12:
  + 1 U6 - 1 U12 + 14 X_6_12
  <= 13
 mtz_6_13:
  + 1 U6 - 1 U13 + 14 X_6_13
  <= 13
 mtz_6_14:
  + 1 U6 - 1 U14 + 14 X_6_14
  <= 13
 mtz_7_1:
  + 1 U7 - 1 U1 + 14 X_7_1
  <= 13
 mtz_7_2:
  + 1 U7 - 1 U2 + 14 X_7_2
  <= 13
 mtz_7_3:
  + 1 U7 - 1 U3 + 14 X_7_3
  <= 13
 mtz_7_4:
  + 1 U7 - 1 U4 + 14 X_7_4
  <= 13
 mtz_7_5:
  + 1 U7 - 1 U5 + 14 X_7_5
  <= 13
 mtz_7_6:
  + 1 U7 - 1 U6 + 14 X_7_6
  <= 13
 mtz_7_8:
  + 1 U7 - 1 U8 + 14 X_7_8
  <= 13
 mtz_7_9:
  + 1 U7 - 1 U9 + 14 X_7_9
  <= 13
 mtz_7_10:
  + 1 U7 - 1 U10 + 14 X_7_10
  <= 13
 mtz_7_11:
  + 1 U7 - 1 U11 + 14 X_7_11
  <= 13
 mtz_7_12:
  + 1 U7 - 1 U12 + 14 X_7_12
  <= 13
 mtz_7_13:
  + 1 U7 - 1 U13 + 14 X_7_13
  <= 13
 mtz_7_14:
  + 1 U7 - 1 U14 + 14 X_7_14
  <= 13
 mtz_8_1:
  + 1 U8 - 1 U1 + 14 X_8_1
  <= 13
 mtz_8_2:
  + 1 U8 - 1 U2 + 14 X_8_2
  <= 13
 mtz_8_3:
  + 1 U8 - 1 U3 + 14 X_8_3
  <= 13
 mtz_8_4:
  + 1 U8 - 1 U4 + 14 X_8_4
  <= 13
 mtz_8_5:
  + 1 U8 - 1 U5 + 14 X_8_5
  <= 13
 mtz_8_6:
  + 1 U8 - 1 U6 + 14 X_8_6
  <= 13
 mtz_8_7:
  + 1 U8 - 1 U7 + 14 X_8_7
  <= 13
 mtz_8_9:
  + 1 U8 - 1 U9 + 14 X_8_9
  <= 13
 mtz_8_10:
  + 1 U8 - 1 U10 + 14 X_8_10
  <= 13
 mtz_8_11:
  + 1 U8 - 1 U11 + 14 X_8_11
  <= 13
 mtz_8_12:
  + 1 U8 - 1 U12 + 14 X_8_12
  <= 13
 mtz_8_13:
  + 1 U8 - 1 U13 + 14 X_8_13
  <= 13
 mtz_8_14:
  + 1 U8 - 1 U14 + 14 X_8_14
  <= 13
 mtz_9_1:
  + 1 U9 - 1 U1 + 14 X_9_1
  <= 13
 mtz_9_2:
  + 1 U9 - 1 U2 + 14 X_9_2
  <= 13
 mtz_9_3:
  + 1 U9 - 1 U3 + 14 X_9_3
  <= 13
 mtz_9_4:
  + 1 U9 - 1 U4 + 14 X_9_4
  <= 13
 mtz_9_5:
  + 1 U9 - 1 U5 + 14 X_9_5
  <= 13
 mtz_9_6:
  + 1 U9 - 1 U6 + 14 X_9_6
  <= 13
 mtz_9_7:
  + 1 U9 - 1 U7 + 14 X_9_7
  <= 13
 mtz_9_8:
  + 1 U9 - 1 U8 + 14 X_9_8
  <= 13
 mtz_9_10:
  + 1 U9 - 1 U10 + 14 X_9_10
  <= 13
 mtz_9_11:
  + 1 U9 - 1 U11 + 14 X_9_11
  <= 13
 mtz_9_12:
  + 1 U9 - 1 U12 + 14 X_9_12
  <= 13
 mtz_9_13:
  + 1 U9 - 1 U13 + 14 X_9_13
  <= 13
 mtz_9_14:
  + 1 U9 - 1 U14 + 14 X_9_14
  <= 13
 mtz_10_1:
  + 1 U10 - 1 U1 + 14 X_10_1
  <= 13
 mtz_10_2:
  + 1 U10 - 1 U2 + 14 X_10_2
  <= 13
 mtz_10_3:
  + 1 U10 - 1 U3 + 14 X_10_3
  <= 13
 mtz_10_4:
  + 1 U10 - 1 U4 + 14 X_10_4
  <= 13
 mtz_10_5:
  + 1 U10 - 1 U5 + 14 X_10_5
  <= 13
 mtz_10_6:
  + 1 U10 - 1 U6 + 14 X_10_6
  <= 13
 mtz_10_7:
  + 1 U10 - 1 U7 + 14 X_10_7
  <= 13
 mtz_10_8:
  + 1 U10 - 1 U8 + 14 X_10_8
  <= 13
 mtz_10_9:
  + 1 U10 - 1 U9 + 14 X_10_9
  <= 13
 mtz_10_11:
  + 1 U10 - 1 U11 + 14 X_10_11
  <= 13
 mtz_10_12:
  + 1 U10 - 1 U12 + 14 X_10_12
  <= 13
 mtz_10_13:
  + 1 U10 - 1 U13 + 14 X_10_13
  <= 13
 mtz_10_14:
  + 1 U10 - 1 U14 + 14 X_10_14
  <= 13
 mtz_11_1:
  + 1 U11 - 1 U1 + 14 X_11_1
  <= 13
 mtz_11_2:
  + 1 U11 - 1 U2 + 14 X_11_2
  <= 13
 mtz_11_3:
  + 1 U11 - 1 U3 + 14 X_11_3
  <= 13
 mtz_11_4:
  + 1 U11 - 1 U4 + 14 X_11_4
  <= 13
 mtz_11_5:
  + 1 U11 - 1 U5 + 14 X_11_5
  <= 13
 mtz_11_6:
  + 1 U11 - 1 U6 + 14 X_11_6
  <= 13
 mtz_11_7:
  + 1 U11 - 1 U7 + 14 X_11_7
  <= 13
 mtz_11_8:
  + 1 U11 - 1 U8 + 14 X_11_8
  <= 13
 mtz_11_9:
  + 1 U11 - 1 U9 + 14 X_11_9
  <= 13
 mtz_11_10:
  + 1 U11 - 1 U10 + 14 X_11_10
  <= 13
 mtz_11_12:
  + 1 U11 - 1 U12 + 14 X_11_12
  <= 13
 mtz_11_13:
  + 1 U11 - 1 U13 + 14 X_11_13
  <= 13
 mtz_11_14:
  + 1 U11 - 1 U14 + 14 X_11_14
  <= 13
 mtz_12_1:
  + 1 U12 - 1 U1 + 14 X_12_1
  <= 13
 mtz_12_2:
  + 1 U12 - 1 U2 + 14 X_12_2
  <= 13
 mtz_12_3:
  + 1 U12 - 1 U3 + 14 X_12_3
  <= 13
 mtz_12_4:
  + 1 U12 - 1 U4 + 14 X_12_4
  <= 13
 mtz_12_5:
  + 1 U12 - 1 U5 + 14 X_12_5
  <= 13
 mtz_12_6:
  + 1 U12 - 1 U6 + 14 X_12_6
  <= 13
 mtz_12_7:
  + 1 U12 - 1 U7 + 14 X_12_7
  <= 13
 mtz_12_8:
  + 1 U12 - 1 U8 + 14 X_12_8
  <= 13
 mtz_12_9:
  + 1 U12 - 1 U9 + 14 X_12_9
  <= 13
 mtz_12_10:
  + 1 U12 - 1 U10 + 14 X_12_10
  <= 13
 mtz_12_11:
  + 1 U12 - 1 U11 + 14 X_12_11
  <= 13
 mtz_12_13:
  + 1 U12 - 1 U13 + 14 X_12_13
  <= 13
 mtz_12_14:
  + 1 U12 - 1 U14 + 14 X_12_14
  <= 13
 mtz_13_1:
  + 1 U13 - 1 U1 + 14 X_13_1
  <= 13
 mtz_13_2:
  + 1 U13 - 1 U2 + 14 X_13_2
  <= 13
 mtz_13_3:
  + 1 U13 - 1 U3 + 14 X_13_3
  <= 13
 mtz_13_4:
  + 1 U13 - 1 U4 + 14 X_13_4
  <= 13
 mtz_13_5:
  + 1 U13 - 1 U5 + 14 X_13_5
  <= 13
 mtz_13_6:
  + 1 U13 - 1 U6 + 14 X_13_6
  <= 13
 mtz_13_7:
  + 1 U13 - 1 U7 + 14 X_13_7
  <= 13
 mtz_13_8:
  + 1 U13 - 1 U8 + 14 X_13_8
  <= 13
 mtz_13_9:
  + 1 U13 - 1 U9 + 14 X_13_9
  <= 13
 mtz_13_10:
  + 1 U13 - 1 U10 + 14 X_13_10
  <= 13
 mtz_13_11:
  + 1 U13 - 1 U11 + 14 X_13_11
  <= 13
 mtz_13_12:
  + 1 U13 - 1 U12 + 14 X_13_12
  <= 13
 mtz_13_14:
  + 1 U13 - 1 U14 + 14 X_13_14
  <= 13
 mtz_14_1:
  + 1 U14 - 1 U1 + 14 X_14_1
  <= 13
 mtz_14_2:
  + 1 U14 - 1 U2 + 14 X_14_2
  <= 13
 mtz_14_3:
  + 1 U14 - 1 U3 + 14 X_14_3
  <= 13
 mtz_14_4:
  + 1 U14 - 1 U4 + 14 X_14_4
  <= 13
 mtz_14_5:
  + 1 U14 - 1 U5 + 14 X_14_5
  <= 13
 mtz_14_6:
  + 1 U14 - 1 U6 + 14 X_14_6
  <= 13
 mtz_14_7:
  + 1 U14 - 1 U7 + 14 X_14_7
  <= 13
 mtz_14_8:
  + 1 U14 - 1 U8 + 14 X_14_8
  <= 13
 mtz_14_9:
  + 1 U14 - 1 U9 + 14 X_14_9
  <= 13
 mtz_14_10:
  + 1 U14 - 1 U10 + 14 X_14_10
  <= 13
 mtz_14_11:
  + 1 U14 - 1 U11 + 14 X_14_11
  <= 13
 mtz_14_12:
  + 1 U14 - 1 U12 + 14 X_14_12
  <= 13
 mtz_14_13:
  + 1 U14 - 1 U13 + 14 X_14_13
  <= 13
 obj1:
  + 410 X_0_1 + 593 X_0_2 + 543 X_0_3 + 488 X_0_4 + 443 X_0_5 + 369 X_0_6 + 358 X_0_7 + 282 X_0_8
  + 229 X_0_9 + 543 X_0_10 + 331 X_0_11 + 584 X_0_12 + 654 X_0_13 + 288 X_0_14 + 410 X_1_0 + 881 X_1_2
  + 855 X_1_3 + 897 X_1_4 + 840 X_1_5 + 460 X_1_6 + 166 X_1_7 + 152 X_1_8 + 515 X_1_9 + 917 X_1_10
  + 461 X_1_11 + 702 X_1_12 + 661 X_1_13 + 498 X_1_14 + 593 X_2_0 + 881 X_2_1 + 69 X_2_3 + 591 X_2_4
  + 664 X_2_5 + 452 X_2_6 + 912 X_2_7 + 819 X_2_8 + 382 X_2_9 + 805 X_2_10 + 433 X_2_11 + 343 X_2_12
  + 522 X_2_13 + 383 X_2_14 + 543 X_3_0 + 855 X_3_1 + 69 X_3_2 + 522 X_3_4 + 595 X_3_5 + 446 X_3_6
  + 874 X_3_7 + 782 X_3_8 + 344 X_3_9 + 736 X_3_10 + 421 X_3_11 + 376 X_3_12 + 553 X_3_13 + 360 X_3_14
  + 488 X_4_0 + 897 X_4_1 + 591 X_4_2 + 522 X_4_3 + 113 X_4_5 + 726 X_4_6 + 817 X_4_7 + 758 X_4_8
  + 515 X_4_9 + 227 X_4_10 + 682 X_4_11 + 820 X_4_12 + 966 X_4_13 + 601 X_4_14 + 443 X_5_0 + 840 X_5_1
  + 664 X_5_2 + 595 X_5_3 + 113 X_5_4 + 730 X_5_6 + 744 X_5_7 + 695 X_5_8 + 521 X_5_9 + 142 X_5_10
  + 686 X_5_11 + 856 X_5_12 + 988 X_5_13 + 609 X_5_14 + 369 X_6_0 + 460 X_6_1 + 452 X_6_2 + 446 X_6_3
  + 726 X_6_4 + 730 X_6_5 + 541 X_6_7 + 449 X_6_8 + 210 X_6_9 + 858 X_6_10 + 43 X_6_11 + 250 X_6_12
  + 285 X_6_13 + 125 X_6_14 + 358 X_7_0 + 166 X_7_1 + 912 X_7_2 + 874 X_7_3 + 817 X_7_4 + 744 X_7_5
  + 541 X_7_6 + 94 X_7_8 + 530 X_7_9 + 801 X_7_10 + 528 X_7_11 + 791 X_7_12 + 781 X_7_13 + 541 X_7_14
  + 282 X_8_0 + 152 X_8_1 + 819 X_8_2 + 782 X_8_3 + 758 X_8_4 + 695 X_8_5 + 449 X_8_6 + 94 X_8_7
  + 438 X_8_9 + 766 X_8_10 + 435 X_8_11 + 699 X_8_12 + 697 X_8_13 + 447 X_8_14 + 229 X_9_0 + 515 X_9_1
  + 382 X_9_2 + 344 X_9_3 + 515 X_9_4 + 521 X_9_5 + 210 X_9_6 + 530 X_9_7 + 438 X_9_8 + 652 X_9_10
  + 167 X_9_11 + 369 X_9_12 + 473 X_9_13 + 88 X_9_14 + 543 X_10_0 + 917 X_10_1 + 805 X_10_2 + 736 X_10_3
  + 227 X_10_4 + 142 X_10_5 + 858 X_10_6 + 801 X_10_7 + 766 X_10_8 + 652 X_10_9 + 815 X_10_11 + 996 X_10_12
  + 1123 X_10_13 + 740 X_10_14 + 331 X_11_0 + 461 X_11_1 + 433 X_11_2 + 421 X_11_3 + 682 X_11_4 + 686 X_11_5
  + 43 X_11_6 + 528 X_11_7 + 435 X_11_8 + 167 X_11_9 + 815 X_11_10 + 269 X_11_12 + 323 X_11_13 + 83 X_11_14
  + 584 X_12_0 + 702 X_12_1 + 343 X_12_2 + 376 X_12_3 + 820 X_12_4 + 856 X_12_5 + 250 X_12_6 + 791 X_12_7
  + 699 X_12_8 + 369 X_12_9 + 996 X_12_10 + 269 X_12_11 + 178 X_12_13 + 296 X_12_14 + 654 X_13_0 + 661 X_13_1
  + 522 X_13_2 + 553 X_13_3 + 966 X_13_4 + 988 X_13_5 + 285 X_13_6 + 781 X_13_7 + 697 X_13_8 + 473 X_13_9
  + 1123 X_13_10 + 323 X_13_11 + 178 X_13_12 + 386 X_13_14 + 288 X_14_0 + 498 X_14_1 + 383 X_14_2 + 360 X_14_3
  + 601 X_14_4 + 609 X_14_5 + 125 X_14_6 + 541 X_14_7 + 447 X_14_8 + 88 X_14_9 + 740 X_14_10 + 83 X_14_11
  + 296 X_14_12 + 386 X_14_13
  <= 1
 obj2:
  + 628 X_0_1 + 962 X_0_2 + 698 X_0_3 + 99 X_0_4 + 859 X_0_5 + 1073 X_0_6 + 821 X_0_7 + 872 X_0_8
  + 958 X_0_9 + 990 X_0_10 + 946 X_0_11 + 676 X_0_12 + 236 X_0_13 + 136 X_0_14 + 628 X_1_0 + 916 X_1_2
  + 484 X_1_3 + 568 X_1_4 + 507 X_1_5 + 729 X_1_6 + 1040 X_1_7 + 917 X_1_8 + 1003 X_1_9 + 508 X_1_10
  + 318 X_1_11 + 854 X_1_12 + 395 X_1_13 + 609 X_1_14 + 962 X_2_0 + 916 X_2_1 + 433 X_2_3 + 868 X_2_4
  + 493 X_2_5 + 459 X_2_6 + 397 X_2_7 + 140 X_2_8 + 143 X_2_9 + 675 X_2_10 + 1061 X_2_11 + 355 X_2_12
  + 865 X_2_13 + 828 X_2_14 + 698 X_3_0 + 484 X_3_1 + 433 X_3_2 + 599 X_3_4 + 184 X_3_5 + 375 X_3_6
  + 631 X_3_7 + 450 X_3_8 + 529 X_3_9 + 375 X_3_10 + 650 X_3_11 + 461 X_3_12 + 522 X_3_13 + 588 X_3_14
  + 99 X_4_0 + 568 X_4_1 + 868 X_4_2 + 599 X_4_3 + 763 X_4_5 + 975 X_4_6 + 751 X_4_7 + 783 X_4_8
  + 871 X_4_9 + 899 X_4_10 + 885 X_4_11 + 596 X_4_12 + 174 X_4_13 + 65 X_4_14 + 859 X_5_0 + 507 X_5_1
  + 493 X_5_2 + 184 X_5_3 + 763 X_5_4 + 232 X_5_6 + 775 X_5_7 + 556 X_5_8 + 619 X_5_9 + 203 X_5_10
  + 575 X_5_11 + 621 X_5_12 + 660 X_5_13 + 759 X_5_14 + 1073 X_6_0 + 729 X_6_1 + 459 X_6_2 + 375 X_6_3
  + 975 X_6_4 + 232 X_6_5 + 825 X_6_7 + 571 X_6_8 + 603 X_6_9 + 282 X_6_10 + 736 X_6_11 + 710 X_6_12
  + 886 X_6_13 + 964 X_6_14 + 821 X_7_0 + 1040 X_7_1 + 397 X_7_2 + 631 X_7_3 + 751 X_7_4 + 775 X_7_5
  + 825 X_7_6 + 261 X_7_8 + 276 X_7_9 + 978 X_7_10 + 1271 X_7_11 + 186 X_7_12 + 828 X_7_13 + 691 X_7_14
  + 872 X_8_0 + 917 X_8_1 + 140 X_8_2 + 450 X_8_3 + 783 X_8_4 + 556 X_8_5 + 571 X_8_6 + 261 X_8_7
  + 91 X_8_9 + 753 X_8_10 + 1100 X_8_11 + 225 X_8_12 + 805 X_8_13 + 736 X_8_14 + 958 X_9_0 + 1003 X_9_1
  + 143 X_9_2 + 529 X_9_3 + 871 X_9_4 + 619 X_9_5 + 603 X_9_6 + 276 X_9_7 + 91 X_9_8 + 809 X_9_10
  + 1175 X_9_11 + 296 X_9_12 + 896 X_9_13 + 822 X_9_14 + 990 X_10_0 + 508 X_10_1 + 675 X_10_2 + 375 X_10_3
  + 899 X_10_4 + 203 X_10_5 + 282 X_10_6 + 978 X_10_7 + 753 X_10_8 + 809 X_10_9 + 456 X_10_11 + 824 X_10_12
  + 770 X_10_13 + 908 X_10_14 + 946 X_11_0 + 318 X_11_1 + 1061 X_11_2 + 650 X_11_3 + 885 X_11_4 + 575 X_11_5
  + 736 X_11_6 + 1271 X_11_7 + 1100 X_11_8 + 1175 X_11_9 + 456 X_11_10 + 1090 X_11_12 + 713 X_11_13 + 924 X_11_14
  + 676 X_12_0 + 854 X_12_1 + 355 X_12_2 + 461 X_12_3 + 596 X_12_4 + 621 X_12_5 + 710 X_12_6 + 186 X_12_7
  + 225 X_12_8 + 296 X_12_9 + 824 X_12_10 + 1090 X_12_11 + 653 X_12_13 + 541 X_12_14 + 236 X_13_0 + 395 X_13_1
  + 865 X_13_2 + 522 X_13_3 + 174 X_13_4 + 660 X_13_5 + 886 X_13_6 + 828 X_13_7 + 805 X_13_8 + 896 X_13_9
  + 770 X_13_10 + 713 X_13_11 + 653 X_13_12 + 225 X_13_14 + 136 X_14_0 + 609 X_14_1 + 828 X_14_2 + 588 X_14_3
  + 65 X_14_4 + 759 X_14_5 + 964 X_14_6 + 691 X_14_7 + 736 X_14_8 + 822 X_14_9 + 908 X_14_10 + 924 X_14_11
  + 541 X_14_12 + 225 X_14_13
  <= 2
 obj3:
  + 250 X_0_1 + 896 X_0_2 + 216 X_0_3 + 877 X_0_4 + 345 X_0_5 + 701 X_0_6 + 567 X_0_7 + 652 X_0_8
  + 754 X_0_9 + 789 X_0_10 + 700 X_0_11 + 747 X_0_12 + 697 X_0_13 + 868 X_0_14 + 250 X_1_0 + 740 X_1_2
  + 191 X_1_3 + 716 X_1_4 + 153 X_1_5 + 549 X_1_6 + 608 X_1_7 + 402 X_1_8 + 530 X_1_9 + 736 X_1_10
  + 626 X_1_11 + 498 X_1_12 + 502 X_1_13 + 773 X_1_14 + 896 X_2_0 + 740 X_2_1 + 931 X_2_3 + 28 X_2_4
  + 587 X_2_5 + 195 X_2_6 + 610 X_2_7 + 654 X_2_8 + 356 X_2_9 + 363 X_2_10 + 315 X_2_11 + 573 X_2_12
  + 999 X_2_13 + 233 X_2_14 + 216 X_3_0 + 191 X_3_1 + 931 X_3_2 + 908 X_3_4 + 344 X_3_5 + 740 X_3_6
  + 736 X_3_7 + 524 X_3_8 + 708 X_3_9 + 906 X_3_10 + 802 X_3_11 + 641 X_3_12 + 492 X_3_13 + 955 X_3_14
  + 877 X_4_0 + 716 X_4_1 + 28 X_4_2 + 908 X_4_3 + 564 X_4_5 + 176 X_4_6 + 610 X_4_7 + 625 X_4_8
  + 328 X_4_9 + 374 X_4_10 + 317 X_4_11 + 544 X_4_12 + 970 X_4_13 + 250 X_4_14 + 345 X_5_0 + 153 X_5_1
  + 587 X_5_2 + 344 X_5_3 + 564 X_5_4 + 396 X_5_6 + 516 X_5_7 + 372 X_5_8 + 409 X_5_9 + 597 X_5_10
  + 484 X_5_11 + 433 X_5_12 + 576 X_5_13 + 623 X_5_14 + 701 X_6_0 + 549 X_6_1 + 195 X_6_2 + 740 X_6_3
  + 176 X_6_4 + 396 X_6_5 + 482 X_6_7 + 530 X_6_8 + 284 X_6_9 + 329 X_6_10 + 228 X_6_11 + 482 X_6_12
  + 858 X_6_13 + 272 X_6_14 + 567 X_7_0 + 608 X_7_1 + 610 X_7_2 + 736 X_7_3 + 610 X_7_4 + 516 X_7_5
  + 482 X_7_6 + 857 X_7_8 + 730 X_7_9 + 308 X_7_10 + 297 X_7_11 + 872 X_7_12 + 1091 X_7_13 + 446 X_7_14
  + 652 X_8_0 + 402 X_8_1 + 654 X_8_2 + 524 X_8_3 + 625 X_8_4 + 372 X_8_5 + 530 X_8_6 + 857 X_8_7
  + 307 X_8_9 + 840 X_8_10 + 725 X_8_11 + 129 X_8_12 + 349 X_8_13 + 802 X_8_14 + 754 X_9_0 + 530 X_9_1
  + 356 X_9_2 + 708 X_9_3 + 328 X_9_4 + 409 X_9_5 + 284 X_9_6 + 730 X_9_7 + 307 X_9_8 + 614 X_9_10
  + 511 X_9_11 + 216 X_9_12 + 656 X_9_13 + 539 X_9_14 + 789 X_10_0 + 736 X_10_1 + 363 X_10_2 + 906 X_10_3
  + 374 X_10_4 + 597 X_10_5 + 329 X_10_6 + 308 X_10_7 + 840 X_10_8 + 614 X_10_9 + 117 X_10_11 + 808 X_10_12
  + 1144 X_10_13 + 149 X_10_14 + 700 X_11_0 + 626 X_11_1 + 315 X_11_2 + 802 X_11_3 + 317 X_11_4 + 484 X_11_5
  + 228 X_11_6 + 297 X_11_7 + 725 X_11_8 + 511 X_11_9 + 117 X_11_10 + 697 X_11_12 + 1026 X_11_13 + 171 X_11_14
  + 747 X_12_0 + 498 X_12_1 + 573 X_12_2 + 641 X_12_3 + 544 X_12_4 + 433 X_12_5 + 482 X_12_6 + 872 X_12_7
  + 129 X_12_8 + 216 X_12_9 + 808 X_12_10 + 697 X_12_11 + 461 X_12_13 + 748 X_12_14 + 697 X_13_0 + 502 X_13_1
  + 999 X_13_2 + 492 X_13_3 + 970 X_13_4 + 576 X_13_5 + 858 X_13_6 + 1091 X_13_7 + 349 X_13_8 + 656 X_13_9
  + 1144 X_13_10 + 1026 X_13_11 + 461 X_13_12 + 1128 X_13_14 + 868 X_14_0 + 773 X_14_1 + 233 X_14_2 + 955 X_14_3
  + 250 X_14_4 + 623 X_14_5 + 272 X_14_6 + 446 X_14_7 + 802 X_14_8 + 539 X_14_9 + 149 X_14_10 + 171 X_14_11
  + 748 X_14_12 + 1128 X_14_13
  <= 3
 obj4:
  + 62 X_0_1 + 470 X_0_2 + 903 X_0_3 + 545 X_0_4 + 64 X_0_5 + 571 X_0_6 + 59 X_0_7 + 931 X_0_8
  + 403 X_0_9 + 606 X_0_10 + 697 X_0_11 + 866 X_0_12 + 115 X_0_13 + 444 X_0_14 + 62 X_1_0 + 414 X_1_2
  + 938 X_1_3 + 502 X_1_4 + 70 X_1_5 + 523 X_1_6 + 86 X_1_7 + 942 X_1_8 + 387 X_1_9 + 588 X_1_10
  + 710 X_1_11 + 871 X_1_12 + 78 X_1_13 + 403 X_1_14 + 470 X_2_0 + 414 X_2_1 + 1091 X_2_3 + 196 X_2_4
  + 428 X_2_5 + 166 X_2_6 + 496 X_2_7 + 932 X_2_8 + 365 X_2_9 + 463 X_2_10 + 749 X_2_11 + 836 X_2_12
  + 362 X_2_13 + 188 X_2_14 + 903 X_3_0 + 938 X_3_1 + 1091 X_3_2 + 968 X_3_4 + 867 X_3_5 + 1032 X_3_6
  + 953 X_3_7 + 396 X_3_8 + 725 X_3_9 + 706 X_3_10 + 380 X_3_11 + 458 X_3_12 + 896 X_3_13 + 911 X_3_14
  + 545 X_4_0 + 502 X_4_1 + 196 X_4_2 + 968 X_4_3 + 488 X_4_5 + 63 X_4_6 + 587 X_4_7 + 762 X_4_8
  + 268 X_4_9 + 288 X_4_10 + 603 X_4_11 + 662 X_4_12 + 430 X_4_13 + 104 X_4_14 + 64 X_5_0 + 70 X_5_1
  + 428 X_5_2 + 867 X_5_3 + 488 X_5_4 + 517 X_5_6 + 121 X_5_7 + 876 X_5_8 + 339 X_5_9 + 541 X_5_10
  + 643 X_5_11 + 808 X_5_12 + 65 X_5_13 + 385 X_5_14 + 571 X_6_0 + 523 X_6_1 + 166 X_6_2 + 1032 X_6_3
  + 63 X_6_4 + 517 X_6_5 + 609 X_6_7 + 822 X_6_8 + 327 X_6_9 + 349 X_6_10 + 666 X_6_11 + 721 X_6_12
  + 456 X_6_13 + 149 X_6_14 + 59 X_7_0 + 86 X_7_1 + 496 X_7_2 + 953 X_7_3 + 587 X_7_4 + 121 X_7_5
  + 609 X_7_6 + 990 X_7_8 + 460 X_7_9 + 662 X_7_10 + 755 X_7_11 + 925 X_7_12 + 160 X_7_13 + 489 X_7_14
  + 931 X_8_0 + 942 X_8_1 + 932 X_8_2 + 396 X_8_3 + 762 X_8_4 + 876 X_8_5 + 822 X_8_6 + 990 X_8_7
  + 600 X_8_9 + 473 X_8_10 + 235 X_8_11 + 102 X_8_12 + 876 X_8_13 + 745 X_8_14 + 403 X_9_0 + 387 X_9_1
  + 365 X_9_2 + 725 X_9_3 + 268 X_9_4 + 339 X_9_5 + 327 X_9_6 + 460 X_9_7 + 600 X_9_8 + 202 X_9_10
  + 392 X_9_11 + 513 X_9_12 + 310 X_9_13 + 188 X_9_14 + 606 X_10_0 + 588 X_10_1 + 463 X_10_2 + 706 X_10_3
  + 288 X_10_4 + 541 X_10_5 + 349 X_10_6 + 662 X_10_7 + 473 X_10_8 + 202 X_10_9 + 328 X_10_11 + 374 X_10_12
  + 511 X_10_13 + 280 X_10_14 + 697 X_11_0 + 710 X_11_1 + 749 X_11_2 + 380 X_11_3 + 603 X_11_4 + 643 X_11_5
  + 666 X_11_6 + 755 X_11_7 + 235 X_11_8 + 392 X_11_9 + 328 X_11_10 + 191 X_11_12 + 646 X_11_13 + 561 X_11_14
  + 866 X_12_0 + 871 X_12_1 + 836 X_12_2 + 458 X_12_3 + 662 X_12_4 + 808 X_12_5 + 721 X_12_6 + 925 X_12_7
  + 102 X_12_8 + 513 X_12_9 + 374 X_12_10 + 191 X_12_11 + 802 X_12_13 + 649 X_12_14 + 115 X_13_0 + 78 X_13_1
  + 362 X_13_2 + 896 X_13_3 + 430 X_13_4 + 65 X_13_5 + 456 X_13_6 + 160 X_13_7 + 876 X_13_8 + 310 X_13_9
  + 511 X_13_10 + 646 X_13_11 + 802 X_13_12 + 330 X_13_14 + 444 X_14_0 + 403 X_14_1 + 188 X_14_2 + 911 X_14_3
  + 104 X_14_4 + 385 X_14_5 + 149 X_14_6 + 489 X_14_7 + 745 X_14_8 + 188 X_14_9 + 280 X_14_10 + 561 X_14_11
  + 649 X_14_12 + 330 X_14_13
  <= 4
 obj5:
  + 565 X_0_1 + 647 X_0_2 + 961 X_0_3 + 104 X_0_4 + 87 X_0_5 + 585 X_0_6 + 1157 X_0_7 + 656 X_0_8
  + 320 X_0_9 + 830 X_0_10 + 993 X_0_11 + 504 X_0_12 + 612 X_0_13 + 596 X_0_14 + 565 X_1_0 + 494 X_1_2
  + 738 X_1_3 + 601 X_1_4 + 519 X_1_5 + 806 X_1_6 + 797 X_1_7 + 334 X_1_8 + 701 X_1_9 + 697 X_1_10
  + 636 X_1_11 + 190 X_1_12 + 770 X_1_13 + 718 X_1_14 + 647 X_2_0 + 494 X_2_1 + 315 X_2_3 + 598 X_2_4
  + 561 X_2_5 + 438 X_2_6 + 527 X_2_7 + 191 X_2_8 + 524 X_2_9 + 213 X_2_10 + 378 X_2_11 + 311 X_2_12
  + 370 X_2_13 + 312 X_2_14 + 961 X_3_0 + 738 X_3_1 + 315 X_3_2 + 905 X_3_4 + 874 X_3_5 + 623 X_3_6
  + 289 X_3_7 + 405 X_3_8 + 799 X_3_9 + 162 X_3_10 + 231 X_3_11 + 585 X_3_12 + 543 X_3_13 + 500 X_3_14
  + 104 X_4_0 + 601 X_4_1 + 598 X_4_2 + 905 X_4_3 + 83 X_4_5 + 486 X_4_6 + 1120 X_4_7 + 635 X_4_8
  + 216 X_4_9 + 765 X_4_10 + 960 X_4_11 + 507 X_4_12 + 518 X_4_13 + 508 X_4_14 + 87 X_5_0 + 519 X_5_1
  + 561 X_5_2 + 874 X_5_3 + 83 X_5_4 + 516 X_5_6 + 1073 X_5_7 + 577 X_5_8 + 268 X_5_9 + 742 X_5_10
  + 910 X_5_11 + 436 X_5_12 + 536 X_5_13 + 517 X_5_14 + 585 X_6_0 + 806 X_6_1 + 438 X_6_2 + 623 X_6_3
  + 486 X_6_4 + 516 X_6_5 + 904 X_6_7 + 606 X_6_8 + 280 X_6_9 + 461 X_6_10 + 785 X_6_11 + 624 X_6_12
  + 80 X_6_13 + 130 X_6_14 + 1157 X_7_0 + 797 X_7_1 + 527 X_7_2 + 289 X_7_3 + 1120 X_7_4 + 1073 X_7_5
  + 904 X_7_6 + 515 X_7_8 + 1048 X_7_9 + 445 X_7_10 + 167 X_7_11 + 699 X_7_12 + 824 X_7_13 + 776 X_7_14
  + 656 X_8_0 + 334 X_8_1 + 191 X_8_2 + 405 X_8_3 + 635 X_8_4 + 577 X_8_5 + 606 X_8_6 + 515 X_8_7
  + 625 X_8_9 + 369 X_8_10 + 347 X_8_11 + 188 X_8_12 + 546 X_8_13 + 488 X_8_14 + 320 X_9_0 + 701 X_9_1
  + 524 X_9_2 + 799 X_9_3 + 216 X_9_4 + 268 X_9_5 + 280 X_9_6 + 1048 X_9_7 + 625 X_9_8 + 643 X_9_10
  + 902 X_9_11 + 556 X_9_12 + 328 X_9_13 + 334 X_9_14 + 830 X_10_0 + 697 X_10_1 + 213 X_10_2 + 162 X_10_3
  + 765 X_10_4 + 742 X_10_5 + 461 X_10_6 + 445 X_10_7 + 369 X_10_8 + 643 X_10_9 + 349 X_10_11 + 521 X_10_12
  + 381 X_10_13 + 338 X_10_14 + 993 X_11_0 + 636 X_11_1 + 378 X_11_2 + 231 X_11_3 + 960 X_11_4 + 910 X_11_5
  + 785 X_11_6 + 167 X_11_7 + 347 X_11_8 + 902 X_11_9 + 349 X_11_10 + 532 X_11_12 + 707 X_11_13 + 655 X_11_14
  + 504 X_12_0 + 190 X_12_1 + 311 X_12_2 + 585 X_12_3 + 507 X_12_4 + 436 X_12_5 + 624 X_12_6 + 699 X_12_7
  + 188 X_12_8 + 556 X_12_9 + 521 X_12_10 + 532 X_12_11 + 583 X_12_13 + 529 X_12_14 + 612 X_13_0 + 770 X_13_1
  + 370 X_13_2 + 543 X_13_3 + 518 X_13_4 + 536 X_13_5 + 80 X_13_6 + 824 X_13_7 + 546 X_13_8 + 328 X_13_9
  + 381 X_13_10 + 707 X_13_11 + 583 X_13_12 + 58 X_13_14 + 596 X_14_0 + 718 X_14_1 + 312 X_14_2 + 500 X_14_3
  + 508 X_14_4 + 517 X_14_5 + 130 X_14_6 + 776 X_14_7 + 488 X_14_8 + 334 X_14_9 + 338 X_14_10 + 655 X_14_11
  + 529 X_14_12 + 58 X_14_13
  <= 5
Bounds
 1 <= U1 <= 14
 1 <= U2 <= 14
 1 <= U3 <= 14
 1 <= U4 <= 14
 1 <= U5 <= 14
 1 <= U6 <= 14
 1 <= U7 <= 14
 1 <= U8 <= 14
 1 <= U9 <= 14
 1 <= U10 <= 14
 1 <= U11 <= 14
 1 <= U12 <= 14
 1 <= U13 <= 14
 1 <= U14 <= 14
Binary
 X_0_1
 X_0_2
 X_0_3
 X_0_4
 X_0_5
 X_0_6
 X_0_7
 X_0_8
 X_0_9
 X_0_10
 X_0_11
 X_0_12
 X_0_13
 X_0_14
 X_1_0
 X_1_2
 X_1_3
 X_1_4
 X_1_5
 X_1_6
 X_1_7
 X_1_8
 X_1_9
 X_1_10
 X_1_11
 X_1_12
 X_1_13
 X_1_14
 X_2_0
 X_2_1
 X_2_3
 X_2_4
 X_2_5
 X_2_6
 X_2_7
 X_2_8
 X_2_9
 X_2_10
 X_2_11
 X_2_12
 X_2_13
 X_2_14
 X_3_0
 X_3_1
 X_3_2
 X_3_4
 X_3_5
 X_3_6
 X_3_7
 X_3_8
 X_3_9
 X_3_10
 X_3_11
 X_3_12
 X_3_13
 X_3_14
 X_4_0
 X_4_1
 X_4_2
 X_4_3
 X_4_5
 X_4_6
 X_4_7
 X_4_8
 X_4_9
 X_4_10
 X_4_11
 X_4_12
 X_4_13
 X_4_14
 X_5_0
 X_5_1
 X_5_2
 X_5_3
 X_5_4
 X_5_6
 X_5_7
 X_5_8
 X_5_9
 X_5_10
 X_5_11
 X_5_12
 X_5_13
 X_5_14
 X_6_0
 X_6_1
 X_6_2
 X_6_3
 X_6_4
 X_6_5
 X_6_7
 X_6_8
 X_6_9
 X_6_10
 X_6_11
 X_6_12
 X_6_13
 X_6_14
 X_7_0
 X_7_1
 X_7_2
 X_7_3
 X_7_4
 X_7_5
 X_7_6
 X_7_8
 X_7_9
 X_7_10
 X_7_11
 X_7_12
 X_7_13
 X_7_14
 X_8_0
 X_8_1
 X_8_2
 X_8_3
 X_8_4
 X_8_5
 X_8_6
 X_8_7
 X_8_9
 X_8_10
 X_8_11
 X_8_12
 X_8_13
 X_8_14
 X_9_0
 X_9_1
 X_9_2
 X_9_3
 X_9_4
 X_9_5
 X_9_6
 X_9_7
 X_9_8
 X_9_10
 X_9_11
 X_9_12
 X_9_13
 X_9_14
 X_10_0
 X_10_1
 X_10_2
 X_10_3
 X_10_4
 X_10_5
 X_10_6
 X_10_7
 X_10_8
 X_10_9
 X_10_11
 X_10_12
 X_10_13
 X_10_14
 X_11_0
 X_11_1
 X_11_2
 X_11_3
 X_11_4
 X_11_5
 X_11_6
 X_11_7
 X_11_8
 X_11_9
 X_11_10
 X_11_12
 X_11_13
 X_11_14
 X_12_0
 X_12_1
 X_12_2
 X_12_3
 X_12_4
 X_12_5
 X_12_6
 X_12_7
 X_12_8
 X_12_9
 X_12_10
 X_12_11
 X_12_13
 X_12_14
 X_13_0
 X_13_1
 X_13_2
 X_13_3
 X_13_4
 X_13_5
 X_13_6
 X_13_7
 X_13_8
 X_13_9
 X_13_10
 X_13_11
 X_13_12
 X_13_14
 X_14_0
 X_14_1
 X_14_2
 X_14_3
 X_14_4
 X_14_5
 X_14_6
 X_14_7
 X_14_8
 X_14_9
 X_14_10
 X_14_11
 X_14_12
 X_14_13
End
